tsp_instances/TSP50/instance112.tsp
NODE_COORD_SECTION
0 69 182
1 180 144
2 73 197
3 20 23
4 114 17
5 181 52
6 19 54
7 63 80
8 124 162
9 162 125
10 32 166
11 25 39
12 130 3
13 21 50
14 83 64
15 112 130
16 174 75
17 106 117
18 46 178
19 69 73
20 128 22
21 105 186
22 128 35
23 89 103
24 71 80
25 179 32
26 102 3
27 48 165
28 148 150
29 157 61
30 104 117
31 45 43
32 148 155
33 43 42
34 54 82
35 98 61
36 70 113
37 115 40
38 33 26
39 149 189
40 31 107
41 133 109
42 75 50
43 164 90
44 48 100
45 106 45
46 192 72
47 134 113
48 156 116
49 12 143
