tsp_instances/TSP50/instance112.opt.tour
TOUR_SECTION
1
3
22
9
40
33
29
2
10
49
48
42
44
17
47
6
26
30
23
21
13
27
5
38
46
36
15
43
32
34
39
4
12
14
7
35
8
20
25
24
31
18
16
37
45
41
50
11
28
19
-1